# Solution for model Residenece MIP Model
# Objective value = 3.5284199999999994e+05
X(0_0) 225
X(0_1) 96
X(0_2) 96
X(0_3) 282
X(0_4) 96
X(0_5) 0
X(0_6) 180
X(0_7) 142
X(0_8) 96
X(0_9) 185
X(0_10) 93
X(0_11) 96
X(0_12) 183
X(0_13) 144
X(0_14) 90
X(0_15) 0
X(0_16) 186
X(0_17) 90
X(0_18) 180
X(0_19) 230
X(0_20) 0
X(0_21) 0
X(0_22) 90
X(0_23) 282
X(0_24) 192
X(0_25) 237
X(1_0) 225
X(1_1) 276
X(1_2) 192
X(1_3) 96
X(1_4) 0
X(1_5) 0
X(1_6) 226
X(1_7) 276
X(1_8) 0
X(1_9) 0
X(1_10) 0
X(1_11) 275
X(1_12) 90
X(1_13) 95
X(1_14) 0
X(1_15) 144
X(1_16) 186
X(1_17) 275
X(1_18) 90
X(1_19) 0
X(1_20) 90
X(1_21) 96
X(1_22) 236
X(1_23) 276
X(1_24) 0
X(1_25) 0
X(2_0) 0
X(2_1) 0
X(2_2) 336
X(2_3) 336
X(2_4) 336
X(2_5) 0
X(2_6) 0
X(2_7) 0
X(2_8) 336
X(2_9) 336
X(2_10) 336
X(2_11) 0
X(2_12) 0
X(2_13) 0
X(2_14) 336
X(2_15) 336
X(2_16) 336
X(2_17) 0
X(2_18) 0
X(2_19) 0
X(2_20) 336
X(2_21) 336
X(2_22) 336
X(2_23) 0
X(2_24) 0
X(2_25) 0
X(3_0) 288
X(3_1) 288
X(3_2) 0
X(3_3) 0
X(3_4) 0
X(3_5) 0
X(3_6) 288
X(3_7) 192
X(3_8) 0
X(3_9) 96
X(3_10) 0
X(3_11) 0
X(3_12) 231
X(3_13) 273
X(3_14) 0
X(3_15) 0
X(3_16) 96
X(3_17) 0
X(3_18) 192
X(3_19) 288
X(3_20) 0
X(3_21) 0
X(3_22) 0
X(3_23) 0
X(3_24) 288
X(3_25) 288
X(4_0) 240
X(4_1) 144
X(4_2) 0
X(4_3) 0
X(4_4) 0
X(4_5) 94
X(4_6) 144
X(4_7) 240
X(4_8) 0
X(4_9) 0
X(4_10) 0
X(4_11) 0
X(4_12) 240
X(4_13) 240
X(4_14) 0
X(4_15) 0
X(4_16) 0
X(4_17) 0
X(4_18) 225
X(4_19) 240
X(4_20) 0
X(4_21) 0
X(4_22) 0
X(4_23) 0
X(4_24) 240
X(4_25) 240
X(5_0) 0
X(5_1) 0
X(5_2) 0
X(5_3) 0
X(5_4) 0
X(5_5) 230
X(5_6) 135
X(5_7) 0
X(5_8) 270
X(5_9) 0
X(5_10) 0
X(5_11) 135
X(5_12) 135
X(5_13) 90
X(5_14) 90
X(5_15) 180
X(5_16) 0
X(5_17) 92
X(5_18) 90
X(5_19) 90
X(5_20) 180
X(5_21) 180
X(5_22) 0
X(5_23) 0
X(5_24) 0
X(5_25) 0
X(6_0) 0
X(6_1) 285
X(6_2) 270
X(6_3) 226
X(6_4) 0
X(6_5) 0
X(6_6) 0
X(6_7) 240
X(6_8) 135
X(6_9) 180
X(6_10) 180
X(6_11) 0
X(6_12) 0
X(6_13) 270
X(6_14) 95
X(6_15) 192
X(6_16) 180
X(6_17) 0
X(6_18) 0
X(6_19) 0
X(6_20) 286
X(6_21) 240
X(6_22) 240
X(6_23) 0
X(6_24) 0
X(6_25) 0
X(7_0) 0
X(7_1) 0
X(7_2) 0
X(7_3) 0
X(7_4) 315
X(7_5) 325
X(7_6) 0
X(7_7) 0
X(7_8) 0
X(7_9) 0
X(7_10) 0
X(7_11) 0
X(7_12) 0
X(7_13) 0
X(7_14) 0
X(7_15) 0
X(7_16) 0
X(7_17) 0
X(7_18) 0
X(7_19) 0
X(7_20) 0
X(7_21) 0
X(7_22) 0
X(7_23) 0
X(7_24) 0
X(7_25) 0
X(8_0) 0
X(8_1) 0
X(8_2) 365
X(8_3) 365
X(8_4) 365
X(8_5) 365
X(8_6) 0
X(8_7) 0
X(8_8) 360
X(8_9) 365
X(8_10) 365
X(8_11) 365
X(8_12) 0
X(8_13) 0
X(8_14) 365
X(8_15) 365
X(8_16) 365
X(8_17) 365
X(8_18) 0
X(8_19) 0
X(8_20) 365
X(8_21) 365
X(8_22) 365
X(8_23) 365
X(8_24) 0
X(8_25) 0
X(9_0) 336
X(9_1) 336
X(9_2) 240
X(9_3) 0
X(9_4) 0
X(9_5) 96
X(9_6) 336
X(9_7) 336
X(9_8) 90
X(9_9) 144
X(9_10) 0
X(9_11) 96
X(9_12) 336
X(9_13) 319
X(9_14) 93
X(9_15) 90
X(9_16) 0
X(9_17) 192
X(9_18) 336
X(9_19) 315
X(9_20) 0
X(9_21) 0
X(9_22) 0
X(9_23) 336
X(9_24) 336
X(9_25) 336
X(10_0) 0
X(10_1) 0
X(10_2) 326
X(10_3) 319
X(10_4) 315
X(10_5) 0
X(10_6) 0
X(10_7) 0
X(10_8) 315
X(10_9) 326
X(10_10) 180
X(10_11) 135
X(10_12) 0
X(10_13) 0
X(10_14) 284
X(10_15) 319
X(10_16) 135
X(10_17) 191
X(10_18) 0
X(10_19) 0
X(10_20) 142
X(10_21) 277
X(10_22) 315
X(10_23) 225
X(10_24) 0
X(10_25) 0
X(11_0) 0
X(11_1) 0
X(11_2) 0
X(11_3) 288
X(11_4) 286
X(11_5) 276
X(11_6) 0
X(11_7) 0
X(11_8) 0
X(11_9) 280
X(11_10) 288
X(11_11) 282
X(11_12) 0
X(11_13) 0
X(11_14) 0
X(11_15) 280
X(11_16) 288
X(11_17) 275
X(11_18) 0
X(11_19) 0
X(11_20) 0
X(11_21) 280
X(11_22) 282
X(11_23) 285
X(11_24) 0
X(11_25) 0
X(12_0) 240
X(12_1) 240
X(12_2) 0
X(12_3) 0
X(12_4) 0
X(12_5) 0
X(12_6) 240
X(12_7) 240
X(12_8) 0
X(12_9) 0
X(12_10) 0
X(12_11) 0
X(12_12) 240
X(12_13) 240
X(12_14) 0
X(12_15) 0
X(12_16) 0
X(12_17) 0
X(12_18) 233
X(12_19) 240
X(12_20) 0
X(12_21) 0
X(12_22) 0
X(12_23) 0
X(12_24) 240
X(12_25) 240
X(13_0) 0
X(13_1) 0
X(13_2) 180
X(13_3) 185
X(13_4) 0
X(13_5) 95
X(13_6) 0
X(13_7) 0
X(13_8) 180
X(13_9) 95
X(13_10) 0
X(13_11) 180
X(13_12) 0
X(13_13) 0
X(13_14) 180
X(13_15) 95
X(13_16) 0
X(13_17) 140
X(13_18) 0
X(13_19) 0
X(13_20) 225
X(13_21) 90
X(13_22) 0
X(13_23) 0
X(13_24) 0
X(13_25) 0
X(14_0) 0
X(14_1) 0
X(14_2) 0
X(14_3) 0
X(14_4) 240
X(14_5) 239
X(14_6) 0
X(14_7) 0
X(14_8) 0
X(14_9) 0
X(14_10) 240
X(14_11) 0
X(14_12) 0
X(14_13) 0
X(14_14) 0
X(14_15) 0
X(14_16) 0
X(14_17) 0
X(14_18) 0
X(14_19) 0
X(14_20) 0
X(14_21) 0
X(14_22) 0
X(14_23) 0
X(14_24) 0
X(14_25) 0
X(15_0) 0
X(15_1) 0
X(15_2) 0
X(15_3) 0
X(15_4) 144
X(15_5) 237
X(15_6) 0
X(15_7) 0
X(15_8) 90
X(15_9) 90
X(15_10) 90
X(15_11) 288
X(15_12) 0
X(15_13) 0
X(15_14) 96
X(15_15) 96
X(15_16) 0
X(15_17) 240
X(15_18) 0
X(15_19) 0
X(15_20) 240
X(15_21) 0
X(15_22) 0
X(15_23) 0
X(15_24) 0
X(15_25) 0
X(16_0) 0
X(16_1) 0
X(16_2) 0
X(16_3) 0
X(16_4) 0
X(16_5) 0
X(16_6) 0
X(16_7) 0
X(16_8) 225
X(16_9) 0
X(16_10) 325
X(16_11) 0
X(16_12) 90
X(16_13) 0
X(16_14) 235
X(16_15) 0
X(16_16) 325
X(16_17) 0
X(16_18) 0
X(16_19) 0
X(16_20) 0
X(16_21) 0
X(16_22) 0
X(16_23) 0
X(16_24) 0
X(16_25) 0
X(17_0) 270
X(17_1) 192
X(17_2) 0
X(17_3) 0
X(17_4) 0
X(17_5) 140
X(17_6) 270
X(17_7) 192
X(17_8) 0
X(17_9) 0
X(17_10) 0
X(17_11) 144
X(17_12) 274
X(17_13) 187
X(17_14) 0
X(17_15) 0
X(17_16) 0
X(17_17) 144
X(17_18) 240
X(17_19) 226
X(17_20) 0
X(17_21) 0
X(17_22) 0
X(17_23) 0
X(17_24) 288
X(17_25) 288
X(18_0) 273
X(18_1) 240
X(18_2) 92
X(18_3) 0
X(18_4) 0
X(18_5) 0
X(18_6) 278
X(18_7) 239
X(18_8) 0
X(18_9) 0
X(18_10) 0
X(18_11) 93
X(18_12) 278
X(18_13) 239
X(18_14) 0
X(18_15) 0
X(18_16) 0
X(18_17) 93
X(18_18) 278
X(18_19) 235
X(18_20) 0
X(18_21) 0
X(18_22) 0
X(18_23) 95
X(18_24) 280
X(18_25) 235
Y(0_0) 1
Y(0_1) 1
Y(0_2) 1
Y(0_3) 1
Y(0_4) 1
Y(0_5) 1
Y(0_6) 1
Y(0_7) 1
Y(0_8) 1
Y(0_9) 1
Y(0_10) 1
Y(0_11) 1
Y(0_12) 1
Y(0_13) 1
Y(0_14) 1
Y(0_15) 1
Y(0_16) 1
Y(0_17) 1
Y(0_18) 1
Y(0_19) 1
Y(0_20) 1
Y(0_21) 1
Y(0_22) 1
Y(0_23) 1
Y(0_24) 1
Y(0_25) 1
Y(0_26) 1
Y(0_27) 1
Y(0_28) 1
Y(0_29) 1
Y(0_30) 1
Y(1_0) 1
Y(1_1) 1
Y(1_2) 1
Y(1_3) 1
Y(1_4) 1
Y(1_5) 1
Y(1_6) 1
Y(1_7) 1
Y(1_8) 1
Y(1_9) 1
Y(1_10) 1
Y(1_11) 1
Y(1_12) 1
Y(1_13) 1
Y(1_14) 1
Y(1_15) 1
Y(1_16) 1
Y(1_17) 1
Y(1_18) 1
Y(1_19) 1
Y(1_20) 1
Y(1_21) 1
Y(1_22) 1
Y(1_23) 1
Y(1_24) 1
Y(1_25) 1
Y(1_26) 1
Y(1_27) 1
Y(1_28) 1
Y(1_29) 0
Y(1_30) 0
Y(2_0) 0
Y(2_1) 0
Y(2_2) 1
Y(2_3) 1
Y(2_4) 1
Y(2_5) 1
Y(2_6) 1
Y(2_7) 1
Y(2_8) 1
Y(2_9) 1
Y(2_10) 1
Y(2_11) 1
Y(2_12) 1
Y(2_13) 1
Y(2_14) 1
Y(2_15) 1
Y(2_16) 1
Y(2_17) 1
Y(2_18) 1
Y(2_19) 1
Y(2_20) 1
Y(2_21) 1
Y(2_22) 1
Y(2_23) 1
Y(2_24) 1
Y(2_25) 1
Y(2_26) 1
Y(2_27) 1
Y(2_28) 0
Y(2_29) 0
Y(2_30) 0
Y(3_0) 1
Y(3_1) 1
Y(3_2) 1
Y(3_3) 1
Y(3_4) 1
Y(3_5) 1
Y(3_6) 1
Y(3_7) 1
Y(3_8) 1
Y(3_9) 1
Y(3_10) 1
Y(3_11) 1
Y(3_12) 1
Y(3_13) 1
Y(3_14) 1
Y(3_15) 1
Y(3_16) 1
Y(3_17) 1
Y(3_18) 1
Y(3_19) 1
Y(3_20) 1
Y(3_21) 1
Y(3_22) 1
Y(3_23) 1
Y(3_24) 1
Y(3_25) 1
Y(3_26) 1
Y(3_27) 1
Y(3_28) 1
Y(3_29) 1
Y(3_30) 1
Y(4_0) 1
Y(4_1) 1
Y(4_2) 1
Y(4_3) 1
Y(4_4) 1
Y(4_5) 1
Y(4_6) 1
Y(4_7) 1
Y(4_8) 1
Y(4_9) 1
Y(4_10) 1
Y(4_11) 1
Y(4_12) 1
Y(4_13) 1
Y(4_14) 1
Y(4_15) 1
Y(4_16) 1
Y(4_17) 1
Y(4_18) 1
Y(4_19) 1
Y(4_20) 1
Y(4_21) 1
Y(4_22) 1
Y(4_23) 1
Y(4_24) 1
Y(4_25) 1
Y(4_26) 1
Y(4_27) 1
Y(4_28) 1
Y(4_29) 1
Y(4_30) 1
Y(5_0) 0
Y(5_1) 0
Y(5_2) 0
Y(5_3) 0
Y(5_4) 0
Y(5_5) 1
Y(5_6) 1
Y(5_7) 1
Y(5_8) 1
Y(5_9) 1
Y(5_10) 1
Y(5_11) 1
Y(5_12) 1
Y(5_13) 1
Y(5_14) 1
Y(5_15) 1
Y(5_16) 1
Y(5_17) 1
Y(5_18) 1
Y(5_19) 1
Y(5_20) 1
Y(5_21) 1
Y(5_22) 1
Y(5_23) 1
Y(5_24) 1
Y(5_25) 1
Y(5_26) 1
Y(5_27) 0
Y(5_28) 0
Y(5_29) 0
Y(5_30) 0
Y(6_0) 0
Y(6_1) 1
Y(6_2) 1
Y(6_3) 1
Y(6_4) 1
Y(6_5) 1
Y(6_6) 1
Y(6_7) 1
Y(6_8) 1
Y(6_9) 1
Y(6_10) 1
Y(6_11) 1
Y(6_12) 1
Y(6_13) 1
Y(6_14) 1
Y(6_15) 1
Y(6_16) 1
Y(6_17) 1
Y(6_18) 1
Y(6_19) 1
Y(6_20) 1
Y(6_21) 1
Y(6_22) 1
Y(6_23) 1
Y(6_24) 1
Y(6_25) 1
Y(6_26) 1
Y(6_27) 1
Y(6_28) 0
Y(6_29) 0
Y(6_30) 0
Y(7_0) 0
Y(7_1) 0
Y(7_2) 0
Y(7_3) 0
Y(7_4) 1
Y(7_5) 1
Y(7_6) 1
Y(7_7) 1
Y(7_8) 1
Y(7_9) 1
Y(7_10) 1
Y(7_11) 0
Y(7_12) 0
Y(7_13) 0
Y(7_14) 0
Y(7_15) 0
Y(7_16) 0
Y(7_17) 0
Y(7_18) 0
Y(7_19) 0
Y(7_20) 0
Y(7_21) 0
Y(7_22) 0
Y(7_23) 0
Y(7_24) 0
Y(7_25) 0
Y(7_26) 0
Y(7_27) 0
Y(7_28) 0
Y(7_29) 0
Y(7_30) 0
Y(8_0) 0
Y(8_1) 0
Y(8_2) 1
Y(8_3) 1
Y(8_4) 1
Y(8_5) 1
Y(8_6) 1
Y(8_7) 1
Y(8_8) 1
Y(8_9) 1
Y(8_10) 1
Y(8_11) 1
Y(8_12) 1
Y(8_13) 1
Y(8_14) 1
Y(8_15) 1
Y(8_16) 1
Y(8_17) 1
Y(8_18) 1
Y(8_19) 1
Y(8_20) 1
Y(8_21) 1
Y(8_22) 1
Y(8_23) 1
Y(8_24) 1
Y(8_25) 1
Y(8_26) 1
Y(8_27) 1
Y(8_28) 1
Y(8_29) 0
Y(8_30) 0
Y(9_0) 1
Y(9_1) 1
Y(9_2) 1
Y(9_3) 1
Y(9_4) 1
Y(9_5) 1
Y(9_6) 1
Y(9_7) 1
Y(9_8) 1
Y(9_9) 1
Y(9_10) 1
Y(9_11) 1
Y(9_12) 1
Y(9_13) 1
Y(9_14) 1
Y(9_15) 1
Y(9_16) 1
Y(9_17) 1
Y(9_18) 1
Y(9_19) 1
Y(9_20) 1
Y(9_21) 1
Y(9_22) 1
Y(9_23) 1
Y(9_24) 1
Y(9_25) 1
Y(9_26) 1
Y(9_27) 1
Y(9_28) 1
Y(9_29) 1
Y(9_30) 1
Y(10_0) 0
Y(10_1) 0
Y(10_2) 1
Y(10_3) 1
Y(10_4) 1
Y(10_5) 1
Y(10_6) 1
Y(10_7) 1
Y(10_8) 1
Y(10_9) 1
Y(10_10) 1
Y(10_11) 1
Y(10_12) 1
Y(10_13) 1
Y(10_14) 1
Y(10_15) 1
Y(10_16) 1
Y(10_17) 1
Y(10_18) 1
Y(10_19) 1
Y(10_20) 1
Y(10_21) 1
Y(10_22) 1
Y(10_23) 1
Y(10_24) 1
Y(10_25) 1
Y(10_26) 1
Y(10_27) 1
Y(10_28) 1
Y(10_29) 0
Y(10_30) 0
Y(11_0) 0
Y(11_1) 0
Y(11_2) 0
Y(11_3) 1
Y(11_4) 1
Y(11_5) 1
Y(11_6) 1
Y(11_7) 1
Y(11_8) 1
Y(11_9) 1
Y(11_10) 1
Y(11_11) 1
Y(11_12) 1
Y(11_13) 1
Y(11_14) 1
Y(11_15) 1
Y(11_16) 1
Y(11_17) 1
Y(11_18) 1
Y(11_19) 1
Y(11_20) 1
Y(11_21) 1
Y(11_22) 1
Y(11_23) 1
Y(11_24) 1
Y(11_25) 1
Y(11_26) 1
Y(11_27) 1
Y(11_28) 1
Y(11_29) 0
Y(11_30) 0
Y(12_0) 1
Y(12_1) 1
Y(12_2) 1
Y(12_3) 1
Y(12_4) 1
Y(12_5) 1
Y(12_6) 1
Y(12_7) 1
Y(12_8) 1
Y(12_9) 1
Y(12_10) 1
Y(12_11) 1
Y(12_12) 1
Y(12_13) 1
Y(12_14) 1
Y(12_15) 1
Y(12_16) 1
Y(12_17) 1
Y(12_18) 1
Y(12_19) 1
Y(12_20) 1
Y(12_21) 1
Y(12_22) 1
Y(12_23) 1
Y(12_24) 1
Y(12_25) 1
Y(12_26) 1
Y(12_27) 1
Y(12_28) 1
Y(12_29) 1
Y(12_30) 1
Y(13_0) 0
Y(13_1) 0
Y(13_2) 1
Y(13_3) 1
Y(13_4) 1
Y(13_5) 1
Y(13_6) 1
Y(13_7) 1
Y(13_8) 1
Y(13_9) 1
Y(13_10) 1
Y(13_11) 1
Y(13_12) 1
Y(13_13) 1
Y(13_14) 1
Y(13_15) 1
Y(13_16) 1
Y(13_17) 1
Y(13_18) 1
Y(13_19) 1
Y(13_20) 1
Y(13_21) 1
Y(13_22) 1
Y(13_23) 1
Y(13_24) 1
Y(13_25) 1
Y(13_26) 1
Y(13_27) 0
Y(13_28) 0
Y(13_29) 0
Y(13_30) 0
Y(14_0) 0
Y(14_1) 0
Y(14_2) 0
Y(14_3) 0
Y(14_4) 1
Y(14_5) 1
Y(14_6) 1
Y(14_7) 1
Y(14_8) 1
Y(14_9) 1
Y(14_10) 1
Y(14_11) 1
Y(14_12) 1
Y(14_13) 1
Y(14_14) 1
Y(14_15) 1
Y(14_16) 0
Y(14_17) 0
Y(14_18) 0
Y(14_19) 0
Y(14_20) 0
Y(14_21) 0
Y(14_22) 0
Y(14_23) 0
Y(14_24) 0
Y(14_25) 0
Y(14_26) 0
Y(14_27) 0
Y(14_28) 0
Y(14_29) 0
Y(14_30) 0
Y(15_0) 0
Y(15_1) 0
Y(15_2) 0
Y(15_3) 0
Y(15_4) 1
Y(15_5) 1
Y(15_6) 1
Y(15_7) 1
Y(15_8) 1
Y(15_9) 1
Y(15_10) 1
Y(15_11) 1
Y(15_12) 1
Y(15_13) 1
Y(15_14) 1
Y(15_15) 1
Y(15_16) 1
Y(15_17) 1
Y(15_18) 1
Y(15_19) 1
Y(15_20) 1
Y(15_21) 1
Y(15_22) 1
Y(15_23) 1
Y(15_24) 1
Y(15_25) 1
Y(15_26) 0
Y(15_27) 0
Y(15_28) 0
Y(15_29) 0
Y(15_30) 0
Y(16_0) 0
Y(16_1) 0
Y(16_2) 0
Y(16_3) 0
Y(16_4) 0
Y(16_5) 0
Y(16_6) 0
Y(16_7) 0
Y(16_8) 1
Y(16_9) 1
Y(16_10) 1
Y(16_11) 1
Y(16_12) 1
Y(16_13) 1
Y(16_14) 1
Y(16_15) 1
Y(16_16) 1
Y(16_17) 1
Y(16_18) 1
Y(16_19) 1
Y(16_20) 1
Y(16_21) 1
Y(16_22) 0
Y(16_23) 0
Y(16_24) 0
Y(16_25) 0
Y(16_26) 0
Y(16_27) 0
Y(16_28) 0
Y(16_29) 0
Y(16_30) 0
Y(17_0) 1
Y(17_1) 1
Y(17_2) 1
Y(17_3) 1
Y(17_4) 1
Y(17_5) 1
Y(17_6) 1
Y(17_7) 1
Y(17_8) 1
Y(17_9) 1
Y(17_10) 1
Y(17_11) 1
Y(17_12) 1
Y(17_13) 1
Y(17_14) 1
Y(17_15) 1
Y(17_16) 1
Y(17_17) 1
Y(17_18) 1
Y(17_19) 1
Y(17_20) 1
Y(17_21) 1
Y(17_22) 1
Y(17_23) 1
Y(17_24) 1
Y(17_25) 1
Y(17_26) 1
Y(17_27) 1
Y(17_28) 1
Y(17_29) 1
Y(17_30) 1
Y(18_0) 1
Y(18_1) 1
Y(18_2) 1
Y(18_3) 1
Y(18_4) 1
Y(18_5) 1
Y(18_6) 1
Y(18_7) 1
Y(18_8) 1
Y(18_9) 1
Y(18_10) 1
Y(18_11) 1
Y(18_12) 1
Y(18_13) 1
Y(18_14) 1
Y(18_15) 1
Y(18_16) 1
Y(18_17) 1
Y(18_18) 1
Y(18_19) 1
Y(18_20) 1
Y(18_21) 1
Y(18_22) 1
Y(18_23) 1
Y(18_24) 1
Y(18_25) 1
Y(18_26) 1
Y(18_27) 1
Y(18_28) 1
Y(18_29) 1
Y(18_30) 1
XMULT(0_0) 5
XMULT(0_1) 2
XMULT(0_2) 2
XMULT(0_3) 6
XMULT(0_4) 2
XMULT(0_5) 0
XMULT(0_6) 4
XMULT(0_7) 3
XMULT(0_8) 2
XMULT(0_9) 4
XMULT(0_10) 2
XMULT(0_11) 2
XMULT(0_12) 4
XMULT(0_13) 3
XMULT(0_14) 2
XMULT(0_15) 0
XMULT(0_16) 4
XMULT(0_17) 2
XMULT(0_18) 4
XMULT(0_19) 5
XMULT(0_20) 0
XMULT(0_21) 0
XMULT(0_22) 2
XMULT(0_23) 6
XMULT(0_24) 4
XMULT(0_25) 5
XMULT(1_0) 5
XMULT(1_1) 6
XMULT(1_2) 4
XMULT(1_3) 2
XMULT(1_4) 0
XMULT(1_5) 0
XMULT(1_6) 5
XMULT(1_7) 6
XMULT(1_8) 0
XMULT(1_9) 0
XMULT(1_10) 0
XMULT(1_11) 6
XMULT(1_12) 2
XMULT(1_13) 2
XMULT(1_14) 0
XMULT(1_15) 3
XMULT(1_16) 4
XMULT(1_17) 6
XMULT(1_18) 2
XMULT(1_19) 0
XMULT(1_20) 2
XMULT(1_21) 2
XMULT(1_22) 5
XMULT(1_23) 6
XMULT(1_24) 0
XMULT(1_25) 0
XMULT(2_0) 0
XMULT(2_1) 0
XMULT(2_2) 7
XMULT(2_3) 7
XMULT(2_4) 7
XMULT(2_5) 0
XMULT(2_6) 0
XMULT(2_7) 0
XMULT(2_8) 7
XMULT(2_9) 7
XMULT(2_10) 7
XMULT(2_11) 0
XMULT(2_12) 0
XMULT(2_13) 0
XMULT(2_14) 7
XMULT(2_15) 7
XMULT(2_16) 7
XMULT(2_17) 0
XMULT(2_18) 0
XMULT(2_19) 0
XMULT(2_20) 7
XMULT(2_21) 7
XMULT(2_22) 7
XMULT(2_23) 0
XMULT(2_24) 0
XMULT(2_25) 0
XMULT(3_0) 6
XMULT(3_1) 6
XMULT(3_2) 0
XMULT(3_3) 0
XMULT(3_4) 0
XMULT(3_5) 0
XMULT(3_6) 6
XMULT(3_7) 4
XMULT(3_8) 0
XMULT(3_9) 2
XMULT(3_10) 0
XMULT(3_11) 0
XMULT(3_12) 5
XMULT(3_13) 6
XMULT(3_14) 0
XMULT(3_15) 0
XMULT(3_16) 2
XMULT(3_17) 0
XMULT(3_18) 4
XMULT(3_19) 6
XMULT(3_20) 0
XMULT(3_21) 0
XMULT(3_22) 0
XMULT(3_23) 0
XMULT(3_24) 6
XMULT(3_25) 6
XMULT(4_0) 5
XMULT(4_1) 3
XMULT(4_2) 0
XMULT(4_3) 0
XMULT(4_4) 0
XMULT(4_5) 2
XMULT(4_6) 3
XMULT(4_7) 5
XMULT(4_8) 0
XMULT(4_9) 0
XMULT(4_10) 0
XMULT(4_11) 0
XMULT(4_12) 5
XMULT(4_13) 5
XMULT(4_14) 0
XMULT(4_15) 0
XMULT(4_16) 0
XMULT(4_17) 0
XMULT(4_18) 5
XMULT(4_19) 5
XMULT(4_20) 0
XMULT(4_21) 0
XMULT(4_22) 0
XMULT(4_23) 0
XMULT(4_24) 5
XMULT(4_25) 5
XMULT(5_0) 0
XMULT(5_1) 0
XMULT(5_2) 0
XMULT(5_3) 0
XMULT(5_4) 0
XMULT(5_5) 5
XMULT(5_6) 3
XMULT(5_7) 0
XMULT(5_8) 6
XMULT(5_9) 0
XMULT(5_10) 0
XMULT(5_11) 3
XMULT(5_12) 3
XMULT(5_13) 2
XMULT(5_14) 2
XMULT(5_15) 4
XMULT(5_16) 0
XMULT(5_17) 2
XMULT(5_18) 2
XMULT(5_19) 2
XMULT(5_20) 4
XMULT(5_21) 4
XMULT(5_22) 0
XMULT(5_23) 0
XMULT(5_24) 0
XMULT(5_25) 0
XMULT(6_0) 0
XMULT(6_1) 6
XMULT(6_2) 6
XMULT(6_3) 5
XMULT(6_4) 0
XMULT(6_5) 0
XMULT(6_6) 0
XMULT(6_7) 5
XMULT(6_8) 3
XMULT(6_9) 4
XMULT(6_10) 4
XMULT(6_11) 0
XMULT(6_12) 0
XMULT(6_13) 6
XMULT(6_14) 2
XMULT(6_15) 4
XMULT(6_16) 4
XMULT(6_17) 0
XMULT(6_18) 0
XMULT(6_19) 0
XMULT(6_20) 6
XMULT(6_21) 5
XMULT(6_22) 5
XMULT(6_23) 0
XMULT(6_24) 0
XMULT(6_25) 0
XMULT(7_0) 0
XMULT(7_1) 0
XMULT(7_2) 0
XMULT(7_3) 0
XMULT(7_4) 7
XMULT(7_5) 7
XMULT(7_6) 0
XMULT(7_7) 0
XMULT(7_8) 0
XMULT(7_9) 0
XMULT(7_10) 0
XMULT(7_11) 0
XMULT(7_12) 0
XMULT(7_13) 0
XMULT(7_14) 0
XMULT(7_15) 0
XMULT(7_16) 0
XMULT(7_17) 0
XMULT(7_18) 0
XMULT(7_19) 0
XMULT(7_20) 0
XMULT(7_21) 0
XMULT(7_22) 0
XMULT(7_23) 0
XMULT(7_24) 0
XMULT(7_25) 0
XMULT(8_0) 0
XMULT(8_1) 0
XMULT(8_2) 8
XMULT(8_3) 8
XMULT(8_4) 8
XMULT(8_5) 8
XMULT(8_6) 0
XMULT(8_7) 0
XMULT(8_8) 8
XMULT(8_9) 8
XMULT(8_10) 8
XMULT(8_11) 8
XMULT(8_12) 0
XMULT(8_13) 0
XMULT(8_14) 8
XMULT(8_15) 8
XMULT(8_16) 8
XMULT(8_17) 8
XMULT(8_18) 0
XMULT(8_19) 0
XMULT(8_20) 8
XMULT(8_21) 8
XMULT(8_22) 8
XMULT(8_23) 8
XMULT(8_24) 0
XMULT(8_25) 0
XMULT(9_0) 7
XMULT(9_1) 7
XMULT(9_2) 5
XMULT(9_3) 0
XMULT(9_4) 0
XMULT(9_5) 2
XMULT(9_6) 7
XMULT(9_7) 7
XMULT(9_8) 2
XMULT(9_9) 3
XMULT(9_10) 0
XMULT(9_11) 2
XMULT(9_12) 7
XMULT(9_13) 7
XMULT(9_14) 2
XMULT(9_15) 2
XMULT(9_16) 0
XMULT(9_17) 4
XMULT(9_18) 7
XMULT(9_19) 7
XMULT(9_20) 0
XMULT(9_21) 0
XMULT(9_22) 0
XMULT(9_23) 7
XMULT(9_24) 7
XMULT(9_25) 7
XMULT(10_0) 0
XMULT(10_1) 0
XMULT(10_2) 7
XMULT(10_3) 7
XMULT(10_4) 7
XMULT(10_5) 0
XMULT(10_6) 0
XMULT(10_7) 0
XMULT(10_8) 7
XMULT(10_9) 7
XMULT(10_10) 4
XMULT(10_11) 3
XMULT(10_12) 0
XMULT(10_13) 0
XMULT(10_14) 6
XMULT(10_15) 7
XMULT(10_16) 3
XMULT(10_17) 4
XMULT(10_18) 0
XMULT(10_19) 0
XMULT(10_20) 3
XMULT(10_21) 6
XMULT(10_22) 7
XMULT(10_23) 5
XMULT(10_24) 0
XMULT(10_25) 0
XMULT(11_0) 0
XMULT(11_1) 0
XMULT(11_2) 0
XMULT(11_3) 6
XMULT(11_4) 6
XMULT(11_5) 6
XMULT(11_6) 0
XMULT(11_7) 0
XMULT(11_8) 0
XMULT(11_9) 6
XMULT(11_10) 6
XMULT(11_11) 6
XMULT(11_12) 0
XMULT(11_13) 0
XMULT(11_14) 0
XMULT(11_15) 6
XMULT(11_16) 6
XMULT(11_17) 6
XMULT(11_18) 0
XMULT(11_19) 0
XMULT(11_20) 0
XMULT(11_21) 6
XMULT(11_22) 6
XMULT(11_23) 6
XMULT(11_24) 0
XMULT(11_25) 0
XMULT(12_0) 5
XMULT(12_1) 5
XMULT(12_2) 0
XMULT(12_3) 0
XMULT(12_4) 0
XMULT(12_5) 0
XMULT(12_6) 5
XMULT(12_7) 5
XMULT(12_8) 0
XMULT(12_9) 0
XMULT(12_10) 0
XMULT(12_11) 0
XMULT(12_12) 5
XMULT(12_13) 5
XMULT(12_14) 0
XMULT(12_15) 0
XMULT(12_16) 0
XMULT(12_17) 0
XMULT(12_18) 5
XMULT(12_19) 5
XMULT(12_20) 0
XMULT(12_21) 0
XMULT(12_22) 0
XMULT(12_23) 0
XMULT(12_24) 5
XMULT(12_25) 5
XMULT(13_0) 0
XMULT(13_1) 0
XMULT(13_2) 4
XMULT(13_3) 4
XMULT(13_4) 0
XMULT(13_5) 2
XMULT(13_6) 0
XMULT(13_7) 0
XMULT(13_8) 4
XMULT(13_9) 2
XMULT(13_10) 0
XMULT(13_11) 4
XMULT(13_12) 0
XMULT(13_13) 0
XMULT(13_14) 4
XMULT(13_15) 2
XMULT(13_16) 0
XMULT(13_17) 3
XMULT(13_18) 0
XMULT(13_19) 0
XMULT(13_20) 5
XMULT(13_21) 2
XMULT(13_22) 0
XMULT(13_23) 0
XMULT(13_24) 0
XMULT(13_25) 0
XMULT(14_0) 0
XMULT(14_1) 0
XMULT(14_2) 0
XMULT(14_3) 0
XMULT(14_4) 5
XMULT(14_5) 5
XMULT(14_6) 0
XMULT(14_7) 0
XMULT(14_8) 0
XMULT(14_9) 0
XMULT(14_10) 5
XMULT(14_11) 0
XMULT(14_12) 0
XMULT(14_13) 0
XMULT(14_14) 0
XMULT(14_15) 0
XMULT(14_16) 0
XMULT(14_17) 0
XMULT(14_18) 0
XMULT(14_19) 0
XMULT(14_20) 0
XMULT(14_21) 0
XMULT(14_22) 0
XMULT(14_23) 0
XMULT(14_24) 0
XMULT(14_25) 0
XMULT(15_0) 0
XMULT(15_1) 0
XMULT(15_2) 0
XMULT(15_3) 0
XMULT(15_4) 3
XMULT(15_5) 5
XMULT(15_6) 0
XMULT(15_7) 0
XMULT(15_8) 2
XMULT(15_9) 2
XMULT(15_10) 2
XMULT(15_11) 6
XMULT(15_12) 0
XMULT(15_13) 0
XMULT(15_14) 2
XMULT(15_15) 2
XMULT(15_16) 0
XMULT(15_17) 5
XMULT(15_18) 0
XMULT(15_19) 0
XMULT(15_20) 5
XMULT(15_21) 0
XMULT(15_22) 0
XMULT(15_23) 0
XMULT(15_24) 0
XMULT(15_25) 0
XMULT(16_0) 0
XMULT(16_1) 0
XMULT(16_2) 0
XMULT(16_3) 0
XMULT(16_4) 0
XMULT(16_5) 0
XMULT(16_6) 0
XMULT(16_7) 0
XMULT(16_8) 5
XMULT(16_9) 0
XMULT(16_10) 7
XMULT(16_11) 0
XMULT(16_12) 2
XMULT(16_13) 0
XMULT(16_14) 5
XMULT(16_15) 0
XMULT(16_16) 7
XMULT(16_17) 0
XMULT(16_18) 0
XMULT(16_19) 0
XMULT(16_20) 0
XMULT(16_21) 0
XMULT(16_22) 0
XMULT(16_23) 0
XMULT(16_24) 0
XMULT(16_25) 0
XMULT(17_0) 6
XMULT(17_1) 4
XMULT(17_2) 0
XMULT(17_3) 0
XMULT(17_4) 0
XMULT(17_5) 3
XMULT(17_6) 6
XMULT(17_7) 4
XMULT(17_8) 0
XMULT(17_9) 0
XMULT(17_10) 0
XMULT(17_11) 3
XMULT(17_12) 6
XMULT(17_13) 4
XMULT(17_14) 0
XMULT(17_15) 0
XMULT(17_16) 0
XMULT(17_17) 3
XMULT(17_18) 5
XMULT(17_19) 5
XMULT(17_20) 0
XMULT(17_21) 0
XMULT(17_22) 0
XMULT(17_23) 0
XMULT(17_24) 6
XMULT(17_25) 6
XMULT(18_0) 6
XMULT(18_1) 5
XMULT(18_2) 2
XMULT(18_3) 0
XMULT(18_4) 0
XMULT(18_5) 0
XMULT(18_6) 6
XMULT(18_7) 5
XMULT(18_8) 0
XMULT(18_9) 0
XMULT(18_10) 0
XMULT(18_11) 2
XMULT(18_12) 6
XMULT(18_13) 5
XMULT(18_14) 0
XMULT(18_15) 0
XMULT(18_16) 0
XMULT(18_17) 2
XMULT(18_18) 6
XMULT(18_19) 5
XMULT(18_20) 0
XMULT(18_21) 0
XMULT(18_22) 0
XMULT(18_23) 2
XMULT(18_24) 6
XMULT(18_25) 5
AUXMULT(0_0) 0
AUXMULT(0_1) 0
AUXMULT(0_2) 0
AUXMULT(0_3) 0
AUXMULT(0_4) 0
AUXMULT(0_5) 1
AUXMULT(0_6) 0
AUXMULT(0_7) 0
AUXMULT(0_8) 0
AUXMULT(0_9) 0
AUXMULT(0_10) 0
AUXMULT(0_11) 0
AUXMULT(0_12) 0
AUXMULT(0_13) 0
AUXMULT(0_14) 0
AUXMULT(0_15) 1
AUXMULT(0_16) 0
AUXMULT(0_17) 0
AUXMULT(0_18) 0
AUXMULT(0_19) 0
AUXMULT(0_20) 1
AUXMULT(0_21) 1
AUXMULT(0_22) 0
AUXMULT(0_23) 0
AUXMULT(0_24) 0
AUXMULT(0_25) 0
AUXMULT(1_0) 0
AUXMULT(1_1) 0
AUXMULT(1_2) 0
AUXMULT(1_3) 0
AUXMULT(1_4) 1
AUXMULT(1_5) 1
AUXMULT(1_6) 0
AUXMULT(1_7) 0
AUXMULT(1_8) 1
AUXMULT(1_9) 1
AUXMULT(1_10) 1
AUXMULT(1_11) 0
AUXMULT(1_12) 0
AUXMULT(1_13) 0
AUXMULT(1_14) 1
AUXMULT(1_15) 0
AUXMULT(1_16) 0
AUXMULT(1_17) 0
AUXMULT(1_18) 0
AUXMULT(1_19) 1
AUXMULT(1_20) 0
AUXMULT(1_21) 0
AUXMULT(1_22) 0
AUXMULT(1_23) 0
AUXMULT(1_24) 1
AUXMULT(1_25) 1
AUXMULT(2_0) 1
AUXMULT(2_1) 1
AUXMULT(2_2) 0
AUXMULT(2_3) 0
AUXMULT(2_4) 0
AUXMULT(2_5) 1
AUXMULT(2_6) 1
AUXMULT(2_7) 1
AUXMULT(2_8) 0
AUXMULT(2_9) 0
AUXMULT(2_10) 0
AUXMULT(2_11) 1
AUXMULT(2_12) 1
AUXMULT(2_13) 1
AUXMULT(2_14) 0
AUXMULT(2_15) 0
AUXMULT(2_16) 0
AUXMULT(2_17) 1
AUXMULT(2_18) 1
AUXMULT(2_19) 1
AUXMULT(2_20) 0
AUXMULT(2_21) 0
AUXMULT(2_22) 0
AUXMULT(2_23) 1
AUXMULT(2_24) 1
AUXMULT(2_25) 1
AUXMULT(3_0) 0
AUXMULT(3_1) 0
AUXMULT(3_2) 1
AUXMULT(3_3) 1
AUXMULT(3_4) 1
AUXMULT(3_5) 1
AUXMULT(3_6) 0
AUXMULT(3_7) 0
AUXMULT(3_8) 1
AUXMULT(3_9) 0
AUXMULT(3_10) 1
AUXMULT(3_11) 1
AUXMULT(3_12) 0
AUXMULT(3_13) 0
AUXMULT(3_14) 1
AUXMULT(3_15) 1
AUXMULT(3_16) 0
AUXMULT(3_17) 1
AUXMULT(3_18) 0
AUXMULT(3_19) 0
AUXMULT(3_20) 1
AUXMULT(3_21) 1
AUXMULT(3_22) 1
AUXMULT(3_23) 1
AUXMULT(3_24) 0
AUXMULT(3_25) 0
AUXMULT(4_0) 0
AUXMULT(4_1) 0
AUXMULT(4_2) 1
AUXMULT(4_3) 1
AUXMULT(4_4) 1
AUXMULT(4_5) 0
AUXMULT(4_6) 0
AUXMULT(4_7) 0
AUXMULT(4_8) 1
AUXMULT(4_9) 1
AUXMULT(4_10) 1
AUXMULT(4_11) 1
AUXMULT(4_12) 0
AUXMULT(4_13) 0
AUXMULT(4_14) 1
AUXMULT(4_15) 1
AUXMULT(4_16) 1
AUXMULT(4_17) 1
AUXMULT(4_18) 0
AUXMULT(4_19) 0
AUXMULT(4_20) 1
AUXMULT(4_21) 1
AUXMULT(4_22) 1
AUXMULT(4_23) 1
AUXMULT(4_24) 0
AUXMULT(4_25) 0
AUXMULT(5_0) 1
AUXMULT(5_1) 1
AUXMULT(5_2) 1
AUXMULT(5_3) 1
AUXMULT(5_4) 1
AUXMULT(5_5) 0
AUXMULT(5_6) 0
AUXMULT(5_7) 1
AUXMULT(5_8) 0
AUXMULT(5_9) 1
AUXMULT(5_10) 1
AUXMULT(5_11) 0
AUXMULT(5_12) 0
AUXMULT(5_13) 0
AUXMULT(5_14) 0
AUXMULT(5_15) 0
AUXMULT(5_16) 1
AUXMULT(5_17) 0
AUXMULT(5_18) 0
AUXMULT(5_19) 0
AUXMULT(5_20) 0
AUXMULT(5_21) 0
AUXMULT(5_22) 1
AUXMULT(5_23) 1
AUXMULT(5_24) 1
AUXMULT(5_25) 1
AUXMULT(6_0) 1
AUXMULT(6_1) 0
AUXMULT(6_2) 0
AUXMULT(6_3) 0
AUXMULT(6_4) 1
AUXMULT(6_5) 1
AUXMULT(6_6) 1
AUXMULT(6_7) 0
AUXMULT(6_8) 0
AUXMULT(6_9) 0
AUXMULT(6_10) 0
AUXMULT(6_11) 1
AUXMULT(6_12) 1
AUXMULT(6_13) 0
AUXMULT(6_14) 0
AUXMULT(6_15) 0
AUXMULT(6_16) 0
AUXMULT(6_17) 1
AUXMULT(6_18) 1
AUXMULT(6_19) 1
AUXMULT(6_20) 0
AUXMULT(6_21) 0
AUXMULT(6_22) 0
AUXMULT(6_23) 1
AUXMULT(6_24) 1
AUXMULT(6_25) 1
AUXMULT(7_0) 1
AUXMULT(7_1) 1
AUXMULT(7_2) 1
AUXMULT(7_3) 1
AUXMULT(7_4) 0
AUXMULT(7_5) 0
AUXMULT(7_6) 1
AUXMULT(7_7) 1
AUXMULT(7_8) 1
AUXMULT(7_9) 1
AUXMULT(7_10) 1
AUXMULT(7_11) 1
AUXMULT(7_12) 1
AUXMULT(7_13) 1
AUXMULT(7_14) 1
AUXMULT(7_15) 1
AUXMULT(7_16) 1
AUXMULT(7_17) 1
AUXMULT(7_18) 1
AUXMULT(7_19) 1
AUXMULT(7_20) 1
AUXMULT(7_21) 1
AUXMULT(7_22) 1
AUXMULT(7_23) 1
AUXMULT(7_24) 1
AUXMULT(7_25) 1
AUXMULT(8_0) 1
AUXMULT(8_1) 1
AUXMULT(8_2) 0
AUXMULT(8_3) 0
AUXMULT(8_4) 0
AUXMULT(8_5) 0
AUXMULT(8_6) 1
AUXMULT(8_7) 1
AUXMULT(8_8) 0
AUXMULT(8_9) 0
AUXMULT(8_10) 0
AUXMULT(8_11) 0
AUXMULT(8_12) 1
AUXMULT(8_13) 1
AUXMULT(8_14) 0
AUXMULT(8_15) 0
AUXMULT(8_16) 0
AUXMULT(8_17) 0
AUXMULT(8_18) 1
AUXMULT(8_19) 1
AUXMULT(8_20) 0
AUXMULT(8_21) 0
AUXMULT(8_22) 0
AUXMULT(8_23) 0
AUXMULT(8_24) 1
AUXMULT(8_25) 1
AUXMULT(9_0) 0
AUXMULT(9_1) 0
AUXMULT(9_2) 0
AUXMULT(9_3) 1
AUXMULT(9_4) 1
AUXMULT(9_5) 0
AUXMULT(9_6) 0
AUXMULT(9_7) 0
AUXMULT(9_8) 0
AUXMULT(9_9) 0
AUXMULT(9_10) 1
AUXMULT(9_11) 0
AUXMULT(9_12) 0
AUXMULT(9_13) 0
AUXMULT(9_14) 0
AUXMULT(9_15) 0
AUXMULT(9_16) 1
AUXMULT(9_17) 0
AUXMULT(9_18) 0
AUXMULT(9_19) 0
AUXMULT(9_20) 1
AUXMULT(9_21) 1
AUXMULT(9_22) 1
AUXMULT(9_23) 0
AUXMULT(9_24) 0
AUXMULT(9_25) 0
AUXMULT(10_0) 1
AUXMULT(10_1) 1
AUXMULT(10_2) 0
AUXMULT(10_3) 0
AUXMULT(10_4) 0
AUXMULT(10_5) 1
AUXMULT(10_6) 1
AUXMULT(10_7) 1
AUXMULT(10_8) 0
AUXMULT(10_9) 0
AUXMULT(10_10) 0
AUXMULT(10_11) 0
AUXMULT(10_12) 1
AUXMULT(10_13) 1
AUXMULT(10_14) 0
AUXMULT(10_15) 0
AUXMULT(10_16) 0
AUXMULT(10_17) 0
AUXMULT(10_18) 1
AUXMULT(10_19) 1
AUXMULT(10_20) 0
AUXMULT(10_21) 0
AUXMULT(10_22) 0
AUXMULT(10_23) 0
AUXMULT(10_24) 1
AUXMULT(10_25) 1
AUXMULT(11_0) 1
AUXMULT(11_1) 1
AUXMULT(11_2) 1
AUXMULT(11_3) 0
AUXMULT(11_4) 0
AUXMULT(11_5) 0
AUXMULT(11_6) 1
AUXMULT(11_7) 1
AUXMULT(11_8) 1
AUXMULT(11_9) 0
AUXMULT(11_10) 0
AUXMULT(11_11) 0
AUXMULT(11_12) 1
AUXMULT(11_13) 1
AUXMULT(11_14) 1
AUXMULT(11_15) 0
AUXMULT(11_16) 0
AUXMULT(11_17) 0
AUXMULT(11_18) 1
AUXMULT(11_19) 1
AUXMULT(11_20) 1
AUXMULT(11_21) 0
AUXMULT(11_22) 0
AUXMULT(11_23) 0
AUXMULT(11_24) 1
AUXMULT(11_25) 1
AUXMULT(12_0) 0
AUXMULT(12_1) 0
AUXMULT(12_2) 1
AUXMULT(12_3) 1
AUXMULT(12_4) 1
AUXMULT(12_5) 1
AUXMULT(12_6) 0
AUXMULT(12_7) 0
AUXMULT(12_8) 1
AUXMULT(12_9) 1
AUXMULT(12_10) 1
AUXMULT(12_11) 1
AUXMULT(12_12) 0
AUXMULT(12_13) 0
AUXMULT(12_14) 1
AUXMULT(12_15) 1
AUXMULT(12_16) 1
AUXMULT(12_17) 1
AUXMULT(12_18) 0
AUXMULT(12_19) 0
AUXMULT(12_20) 1
AUXMULT(12_21) 1
AUXMULT(12_22) 1
AUXMULT(12_23) 1
AUXMULT(12_24) 0
AUXMULT(12_25) 0
AUXMULT(13_0) 1
AUXMULT(13_1) 1
AUXMULT(13_2) 0
AUXMULT(13_3) 0
AUXMULT(13_4) 1
AUXMULT(13_5) 0
AUXMULT(13_6) 1
AUXMULT(13_7) 1
AUXMULT(13_8) 0
AUXMULT(13_9) 0
AUXMULT(13_10) 1
AUXMULT(13_11) 0
AUXMULT(13_12) 1
AUXMULT(13_13) 1
AUXMULT(13_14) 0
AUXMULT(13_15) 0
AUXMULT(13_16) 1
AUXMULT(13_17) 0
AUXMULT(13_18) 1
AUXMULT(13_19) 1
AUXMULT(13_20) 0
AUXMULT(13_21) 0
AUXMULT(13_22) 1
AUXMULT(13_23) 1
AUXMULT(13_24) 1
AUXMULT(13_25) 1
AUXMULT(14_0) 1
AUXMULT(14_1) 1
AUXMULT(14_2) 1
AUXMULT(14_3) 1
AUXMULT(14_4) 0
AUXMULT(14_5) 0
AUXMULT(14_6) 1
AUXMULT(14_7) 1
AUXMULT(14_8) 1
AUXMULT(14_9) 1
AUXMULT(14_10) 0
AUXMULT(14_11) 1
AUXMULT(14_12) 1
AUXMULT(14_13) 1
AUXMULT(14_14) 1
AUXMULT(14_15) 1
AUXMULT(14_16) 1
AUXMULT(14_17) 1
AUXMULT(14_18) 1
AUXMULT(14_19) 1
AUXMULT(14_20) 1
AUXMULT(14_21) 1
AUXMULT(14_22) 1
AUXMULT(14_23) 1
AUXMULT(14_24) 1
AUXMULT(14_25) 1
AUXMULT(15_0) 1
AUXMULT(15_1) 1
AUXMULT(15_2) 1
AUXMULT(15_3) 1
AUXMULT(15_4) 0
AUXMULT(15_5) 0
AUXMULT(15_6) 1
AUXMULT(15_7) 1
AUXMULT(15_8) 0
AUXMULT(15_9) 0
AUXMULT(15_10) 0
AUXMULT(15_11) 0
AUXMULT(15_12) 1
AUXMULT(15_13) 1
AUXMULT(15_14) 0
AUXMULT(15_15) 0
AUXMULT(15_16) 1
AUXMULT(15_17) 0
AUXMULT(15_18) 1
AUXMULT(15_19) 1
AUXMULT(15_20) 0
AUXMULT(15_21) 1
AUXMULT(15_22) 1
AUXMULT(15_23) 1
AUXMULT(15_24) 1
AUXMULT(15_25) 1
AUXMULT(16_0) 1
AUXMULT(16_1) 1
AUXMULT(16_2) 1
AUXMULT(16_3) 1
AUXMULT(16_4) 1
AUXMULT(16_5) 1
AUXMULT(16_6) 1
AUXMULT(16_7) 1
AUXMULT(16_8) 0
AUXMULT(16_9) 1
AUXMULT(16_10) 0
AUXMULT(16_11) 1
AUXMULT(16_12) 0
AUXMULT(16_13) 1
AUXMULT(16_14) 0
AUXMULT(16_15) 1
AUXMULT(16_16) 0
AUXMULT(16_17) 1
AUXMULT(16_18) 1
AUXMULT(16_19) 1
AUXMULT(16_20) 1
AUXMULT(16_21) 1
AUXMULT(16_22) 1
AUXMULT(16_23) 1
AUXMULT(16_24) 1
AUXMULT(16_25) 1
AUXMULT(17_0) 0
AUXMULT(17_1) 0
AUXMULT(17_2) 1
AUXMULT(17_3) 1
AUXMULT(17_4) 1
AUXMULT(17_5) 0
AUXMULT(17_6) 0
AUXMULT(17_7) 0
AUXMULT(17_8) 1
AUXMULT(17_9) 1
AUXMULT(17_10) 1
AUXMULT(17_11) 0
AUXMULT(17_12) 0
AUXMULT(17_13) 0
AUXMULT(17_14) 1
AUXMULT(17_15) 1
AUXMULT(17_16) 1
AUXMULT(17_17) 0
AUXMULT(17_18) 0
AUXMULT(17_19) 0
AUXMULT(17_20) 1
AUXMULT(17_21) 1
AUXMULT(17_22) 1
AUXMULT(17_23) 1
AUXMULT(17_24) 0
AUXMULT(17_25) 0
AUXMULT(18_0) 0
AUXMULT(18_1) 0
AUXMULT(18_2) 0
AUXMULT(18_3) 1
AUXMULT(18_4) 1
AUXMULT(18_5) 1
AUXMULT(18_6) 0
AUXMULT(18_7) 0
AUXMULT(18_8) 1
AUXMULT(18_9) 1
AUXMULT(18_10) 1
AUXMULT(18_11) 0
AUXMULT(18_12) 0
AUXMULT(18_13) 0
AUXMULT(18_14) 1
AUXMULT(18_15) 1
AUXMULT(18_16) 1
AUXMULT(18_17) 0
AUXMULT(18_18) 0
AUXMULT(18_19) 0
AUXMULT(18_20) 1
AUXMULT(18_21) 1
AUXMULT(18_22) 1
AUXMULT(18_23) 0
AUXMULT(18_24) 0
AUXMULT(18_25) 0
XRES(0_0) 0
XRES(0_1) 6
XRES(0_2) 6
XRES(0_3) 12
XRES(0_4) 6
XRES(0_5) 0
XRES(0_6) 0
XRES(0_7) 7
XRES(0_8) 6
XRES(0_9) 5
XRES(0_10) 3
XRES(0_11) 6
XRES(0_12) 3
XRES(0_13) 9
XRES(0_14) 0
XRES(0_15) 0
XRES(0_16) 6
XRES(0_17) 0
XRES(0_18) 0
XRES(0_19) 5
XRES(0_20) 0
XRES(0_21) 0
XRES(0_22) 0
XRES(0_23) 12
XRES(0_24) 12
XRES(0_25) 12
XRES(1_0) 0
XRES(1_1) 6
XRES(1_2) 12
XRES(1_3) 6
XRES(1_4) 0
XRES(1_5) 0
XRES(1_6) 1
XRES(1_7) 6
XRES(1_8) 0
XRES(1_9) 0
XRES(1_10) 0
XRES(1_11) 5
XRES(1_12) 0
XRES(1_13) 5
XRES(1_14) 0
XRES(1_15) 9
XRES(1_16) 6
XRES(1_17) 5
XRES(1_18) 0
XRES(1_19) 0
XRES(1_20) 0
XRES(1_21) 6
XRES(1_22) 11
XRES(1_23) 6
XRES(1_24) 0
XRES(1_25) 0
XRES(2_0) 0
XRES(2_1) 0
XRES(2_2) 21
XRES(2_3) 21
XRES(2_4) 21
XRES(2_5) 0
XRES(2_6) 0
XRES(2_7) 0
XRES(2_8) 21
XRES(2_9) 21
XRES(2_10) 21
XRES(2_11) 0
XRES(2_12) 0
XRES(2_13) 0
XRES(2_14) 21
XRES(2_15) 21
XRES(2_16) 21
XRES(2_17) 0
XRES(2_18) 0
XRES(2_19) 0
XRES(2_20) 21
XRES(2_21) 21
XRES(2_22) 21
XRES(2_23) 0
XRES(2_24) 0
XRES(2_25) 0
XRES(3_0) 18
XRES(3_1) 18
XRES(3_2) 0
XRES(3_3) 0
XRES(3_4) 0
XRES(3_5) 0
XRES(3_6) 18
XRES(3_7) 12
XRES(3_8) 0
XRES(3_9) 6
XRES(3_10) 0
XRES(3_11) 0
XRES(3_12) 6
XRES(3_13) 3
XRES(3_14) 0
XRES(3_15) 0
XRES(3_16) 6
XRES(3_17) 0
XRES(3_18) 12
XRES(3_19) 18
XRES(3_20) 0
XRES(3_21) 0
XRES(3_22) 0
XRES(3_23) 0
XRES(3_24) 18
XRES(3_25) 18
XRES(4_0) 15
XRES(4_1) 9
XRES(4_2) 0
XRES(4_3) 0
XRES(4_4) 0
XRES(4_5) 4
XRES(4_6) 9
XRES(4_7) 15
XRES(4_8) 0
XRES(4_9) 0
XRES(4_10) 0
XRES(4_11) 0
XRES(4_12) 15
XRES(4_13) 15
XRES(4_14) 0
XRES(4_15) 0
XRES(4_16) 0
XRES(4_17) 0
XRES(4_18) 0
XRES(4_19) 15
XRES(4_20) 0
XRES(4_21) 0
XRES(4_22) 0
XRES(4_23) 0
XRES(4_24) 15
XRES(4_25) 15
XRES(5_0) 0
XRES(5_1) 0
XRES(5_2) 0
XRES(5_3) 0
XRES(5_4) 0
XRES(5_5) 5
XRES(5_6) 0
XRES(5_7) 0
XRES(5_8) 0
XRES(5_9) 0
XRES(5_10) 0
XRES(5_11) 0
XRES(5_12) 0
XRES(5_13) 0
XRES(5_14) 0
XRES(5_15) 0
XRES(5_16) 0
XRES(5_17) 2
XRES(5_18) 0
XRES(5_19) 0
XRES(5_20) 0
XRES(5_21) 0
XRES(5_22) 0
XRES(5_23) 0
XRES(5_24) 0
XRES(5_25) 0
XRES(6_0) 0
XRES(6_1) 15
XRES(6_2) 0
XRES(6_3) 1
XRES(6_4) 0
XRES(6_5) 0
XRES(6_6) 0
XRES(6_7) 15
XRES(6_8) 0
XRES(6_9) 0
XRES(6_10) 0
XRES(6_11) 0
XRES(6_12) 0
XRES(6_13) 0
XRES(6_14) 5
XRES(6_15) 12
XRES(6_16) 0
XRES(6_17) 0
XRES(6_18) 0
XRES(6_19) 0
XRES(6_20) 16
XRES(6_21) 15
XRES(6_22) 15
XRES(6_23) 0
XRES(6_24) 0
XRES(6_25) 0
XRES(7_0) 0
XRES(7_1) 0
XRES(7_2) 0
XRES(7_3) 0
XRES(7_4) 0
XRES(7_5) 10
XRES(7_6) 0
XRES(7_7) 0
XRES(7_8) 0
XRES(7_9) 0
XRES(7_10) 0
XRES(7_11) 0
XRES(7_12) 0
XRES(7_13) 0
XRES(7_14) 0
XRES(7_15) 0
XRES(7_16) 0
XRES(7_17) 0
XRES(7_18) 0
XRES(7_19) 0
XRES(7_20) 0
XRES(7_21) 0
XRES(7_22) 0
XRES(7_23) 0
XRES(7_24) 0
XRES(7_25) 0
XRES(8_0) 0
XRES(8_1) 0
XRES(8_2) 5
XRES(8_3) 5
XRES(8_4) 5
XRES(8_5) 5
XRES(8_6) 0
XRES(8_7) 0
XRES(8_8) 0
XRES(8_9) 5
XRES(8_10) 5
XRES(8_11) 5
XRES(8_12) 0
XRES(8_13) 0
XRES(8_14) 5
XRES(8_15) 5
XRES(8_16) 5
XRES(8_17) 5
XRES(8_18) 0
XRES(8_19) 0
XRES(8_20) 5
XRES(8_21) 5
XRES(8_22) 5
XRES(8_23) 5
XRES(8_24) 0
XRES(8_25) 0
XRES(9_0) 21
XRES(9_1) 21
XRES(9_2) 15
XRES(9_3) 0
XRES(9_4) 0
XRES(9_5) 6
XRES(9_6) 21
XRES(9_7) 21
XRES(9_8) 0
XRES(9_9) 9
XRES(9_10) 0
XRES(9_11) 6
XRES(9_12) 21
XRES(9_13) 4
XRES(9_14) 3
XRES(9_15) 0
XRES(9_16) 0
XRES(9_17) 12
XRES(9_18) 21
XRES(9_19) 0
XRES(9_20) 0
XRES(9_21) 0
XRES(9_22) 0
XRES(9_23) 21
XRES(9_24) 21
XRES(9_25) 21
XRES(10_0) 0
XRES(10_1) 0
XRES(10_2) 11
XRES(10_3) 4
XRES(10_4) 0
XRES(10_5) 0
XRES(10_6) 0
XRES(10_7) 0
XRES(10_8) 0
XRES(10_9) 11
XRES(10_10) 0
XRES(10_11) 0
XRES(10_12) 0
XRES(10_13) 0
XRES(10_14) 14
XRES(10_15) 4
XRES(10_16) 0
XRES(10_17) 11
XRES(10_18) 0
XRES(10_19) 0
XRES(10_20) 7
XRES(10_21) 7
XRES(10_22) 0
XRES(10_23) 0
XRES(10_24) 0
XRES(10_25) 0
XRES(11_0) 0
XRES(11_1) 0
XRES(11_2) 0
XRES(11_3) 18
XRES(11_4) 16
XRES(11_5) 6
XRES(11_6) 0
XRES(11_7) 0
XRES(11_8) 0
XRES(11_9) 10
XRES(11_10) 18
XRES(11_11) 12
XRES(11_12) 0
XRES(11_13) 0
XRES(11_14) 0
XRES(11_15) 10
XRES(11_16) 18
XRES(11_17) 5
XRES(11_18) 0
XRES(11_19) 0
XRES(11_20) 0
XRES(11_21) 10
XRES(11_22) 12
XRES(11_23) 15
XRES(11_24) 0
XRES(11_25) 0
XRES(12_0) 15
XRES(12_1) 15
XRES(12_2) 0
XRES(12_3) 0
XRES(12_4) 0
XRES(12_5) 0
XRES(12_6) 15
XRES(12_7) 15
XRES(12_8) 0
XRES(12_9) 0
XRES(12_10) 0
XRES(12_11) 0
XRES(12_12) 15
XRES(12_13) 15
XRES(12_14) 0
XRES(12_15) 0
XRES(12_16) 0
XRES(12_17) 0
XRES(12_18) 8
XRES(12_19) 15
XRES(12_20) 0
XRES(12_21) 0
XRES(12_22) 0
XRES(12_23) 0
XRES(12_24) 15
XRES(12_25) 15
XRES(13_0) 0
XRES(13_1) 0
XRES(13_2) 0
XRES(13_3) 5
XRES(13_4) 0
XRES(13_5) 5
XRES(13_6) 0
XRES(13_7) 0
XRES(13_8) 0
XRES(13_9) 5
XRES(13_10) 0
XRES(13_11) 0
XRES(13_12) 0
XRES(13_13) 0
XRES(13_14) 0
XRES(13_15) 5
XRES(13_16) 0
XRES(13_17) 5
XRES(13_18) 0
XRES(13_19) 0
XRES(13_20) 0
XRES(13_21) 0
XRES(13_22) 0
XRES(13_23) 0
XRES(13_24) 0
XRES(13_25) 0
XRES(14_0) 0
XRES(14_1) 0
XRES(14_2) 0
XRES(14_3) 0
XRES(14_4) 15
XRES(14_5) 14
XRES(14_6) 0
XRES(14_7) 0
XRES(14_8) 0
XRES(14_9) 0
XRES(14_10) 15
XRES(14_11) 0
XRES(14_12) 0
XRES(14_13) 0
XRES(14_14) 0
XRES(14_15) 0
XRES(14_16) 0
XRES(14_17) 0
XRES(14_18) 0
XRES(14_19) 0
XRES(14_20) 0
XRES(14_21) 0
XRES(14_22) 0
XRES(14_23) 0
XRES(14_24) 0
XRES(14_25) 0
XRES(15_0) 0
XRES(15_1) 0
XRES(15_2) 0
XRES(15_3) 0
XRES(15_4) 9
XRES(15_5) 12
XRES(15_6) 0
XRES(15_7) 0
XRES(15_8) 0
XRES(15_9) 0
XRES(15_10) 0
XRES(15_11) 18
XRES(15_12) 0
XRES(15_13) 0
XRES(15_14) 6
XRES(15_15) 6
XRES(15_16) 0
XRES(15_17) 15
XRES(15_18) 0
XRES(15_19) 0
XRES(15_20) 15
XRES(15_21) 0
XRES(15_22) 0
XRES(15_23) 0
XRES(15_24) 0
XRES(15_25) 0
XRES(16_0) 0
XRES(16_1) 0
XRES(16_2) 0
XRES(16_3) 0
XRES(16_4) 0
XRES(16_5) 0
XRES(16_6) 0
XRES(16_7) 0
XRES(16_8) 0
XRES(16_9) 0
XRES(16_10) 10
XRES(16_11) 0
XRES(16_12) 0
XRES(16_13) 0
XRES(16_14) 10
XRES(16_15) 0
XRES(16_16) 10
XRES(16_17) 0
XRES(16_18) 0
XRES(16_19) 0
XRES(16_20) 0
XRES(16_21) 0
XRES(16_22) 0
XRES(16_23) 0
XRES(16_24) 0
XRES(16_25) 0
XRES(17_0) 0
XRES(17_1) 12
XRES(17_2) 0
XRES(17_3) 0
XRES(17_4) 0
XRES(17_5) 5
XRES(17_6) 0
XRES(17_7) 12
XRES(17_8) 0
XRES(17_9) 0
XRES(17_10) 0
XRES(17_11) 9
XRES(17_12) 4
XRES(17_13) 7
XRES(17_14) 0
XRES(17_15) 0
XRES(17_16) 0
XRES(17_17) 9
XRES(17_18) 15
XRES(17_19) 1
XRES(17_20) 0
XRES(17_21) 0
XRES(17_22) 0
XRES(17_23) 0
XRES(17_24) 18
XRES(17_25) 18
XRES(18_0) 3
XRES(18_1) 15
XRES(18_2) 2
XRES(18_3) 0
XRES(18_4) 0
XRES(18_5) 0
XRES(18_6) 8
XRES(18_7) 14
XRES(18_8) 0
XRES(18_9) 0
XRES(18_10) 0
XRES(18_11) 3
XRES(18_12) 8
XRES(18_13) 14
XRES(18_14) 0
XRES(18_15) 0
XRES(18_16) 0
XRES(18_17) 3
XRES(18_18) 8
XRES(18_19) 10
XRES(18_20) 0
XRES(18_21) 0
XRES(18_22) 0
XRES(18_23) 5
XRES(18_24) 10
XRES(18_25) 10
Y2(0_0) 1
Y2(0_1) 1
Y2(0_2) 1
Y2(0_3) 1
Y2(0_4) 1
Y2(0_5) 1
Y2(0_6) 1
Y2(0_7) 1
Y2(0_8) 0
Y2(0_9) 0
Y2(0_10) 0
Y2(0_11) 0
Y2(0_12) 0
Y2(0_13) 0
Y2(0_14) 0
Y2(0_15) 0
Y2(0_16) 0
Y2(0_17) 0
Y2(0_18) 0
Y2(0_19) 0
Y2(0_20) 0
Y2(0_21) 0
Y2(0_22) 0
Y2(0_23) 0
Y2(0_24) 1
Y2(0_25) 1
Y2(0_26) 1
Y2(0_27) 1
Y2(0_28) 1
Y2(0_29) 1
Y2(0_30) 1
Y2(1_0) 1
Y2(1_1) 1
Y2(1_2) 1
Y2(1_3) 1
Y2(1_4) 1
Y2(1_5) 1
Y2(1_6) 1
Y2(1_7) 1
Y2(1_8) 0
Y2(1_9) 0
Y2(1_10) 0
Y2(1_11) 0
Y2(1_12) 0
Y2(1_13) 0
Y2(1_14) 0
Y2(1_15) 0
Y2(1_16) 0
Y2(1_17) 0
Y2(1_18) 0
Y2(1_19) 0
Y2(1_20) 0
Y2(1_21) 0
Y2(1_22) 0
Y2(1_23) 0
Y2(1_24) 1
Y2(1_25) 1
Y2(1_26) 1
Y2(1_27) 1
Y2(1_28) 1
Y2(1_29) 1
Y2(1_30) 1
Y2(2_0) 1
Y2(2_1) 1
Y2(2_2) 1
Y2(2_3) 1
Y2(2_4) 1
Y2(2_5) 1
Y2(2_6) 1
Y2(2_7) 1
Y2(2_8) 0
Y2(2_9) 0
Y2(2_10) 0
Y2(2_11) 0
Y2(2_12) 0
Y2(2_13) 0
Y2(2_14) 0
Y2(2_15) 0
Y2(2_16) 0
Y2(2_17) 0
Y2(2_18) 0
Y2(2_19) 0
Y2(2_20) 0
Y2(2_21) 0
Y2(2_22) 0
Y2(2_23) 0
Y2(2_24) 1
Y2(2_25) 1
Y2(2_26) 1
Y2(2_27) 1
Y2(2_28) 1
Y2(2_29) 1
Y2(2_30) 1
Y2(3_0) 1
Y2(3_1) 1
Y2(3_2) 1
Y2(3_3) 1
Y2(3_4) 1
Y2(3_5) 1
Y2(3_6) 1
Y2(3_7) 1
Y2(3_8) 0
Y2(3_9) 0
Y2(3_10) 0
Y2(3_11) 0
Y2(3_12) 0
Y2(3_13) 0
Y2(3_14) 0
Y2(3_15) 0
Y2(3_16) 0
Y2(3_17) 0
Y2(3_18) 0
Y2(3_19) 0
Y2(3_20) 0
Y2(3_21) 0
Y2(3_22) 0
Y2(3_23) 0
Y2(3_24) 1
Y2(3_25) 1
Y2(3_26) 1
Y2(3_27) 1
Y2(3_28) 1
Y2(3_29) 1
Y2(3_30) 1
Y2(4_0) 1
Y2(4_1) 1
Y2(4_2) 1
Y2(4_3) 1
Y2(4_4) 1
Y2(4_5) 1
Y2(4_6) 1
Y2(4_7) 1
Y2(4_8) 0
Y2(4_9) 0
Y2(4_10) 0
Y2(4_11) 0
Y2(4_12) 0
Y2(4_13) 0
Y2(4_14) 0
Y2(4_15) 0
Y2(4_16) 0
Y2(4_17) 0
Y2(4_18) 0
Y2(4_19) 0
Y2(4_20) 0
Y2(4_21) 0
Y2(4_22) 0
Y2(4_23) 0
Y2(4_24) 1
Y2(4_25) 1
Y2(4_26) 1
Y2(4_27) 1
Y2(4_28) 1
Y2(4_29) 1
Y2(4_30) 1
Y2(5_0) 1
Y2(5_1) 1
Y2(5_2) 1
Y2(5_3) 1
Y2(5_4) 1
Y2(5_5) 1
Y2(5_6) 1
Y2(5_7) 1
Y2(5_8) 0
Y2(5_9) 0
Y2(5_10) 0
Y2(5_11) 0
Y2(5_12) 0
Y2(5_13) 0
Y2(5_14) 0
Y2(5_15) 0
Y2(5_16) 0
Y2(5_17) 0
Y2(5_18) 0
Y2(5_19) 0
Y2(5_20) 0
Y2(5_21) 0
Y2(5_22) 0
Y2(5_23) 0
Y2(5_24) 1
Y2(5_25) 1
Y2(5_26) 1
Y2(5_27) 1
Y2(5_28) 1
Y2(5_29) 1
Y2(5_30) 1
Y2(6_0) 1
Y2(6_1) 1
Y2(6_2) 1
Y2(6_3) 1
Y2(6_4) 1
Y2(6_5) 1
Y2(6_6) 1
Y2(6_7) 1
Y2(6_8) 0
Y2(6_9) 0
Y2(6_10) 0
Y2(6_11) 0
Y2(6_12) 0
Y2(6_13) 0
Y2(6_14) 0
Y2(6_15) 0
Y2(6_16) 0
Y2(6_17) 0
Y2(6_18) 0
Y2(6_19) 0
Y2(6_20) 0
Y2(6_21) 0
Y2(6_22) 0
Y2(6_23) 0
Y2(6_24) 1
Y2(6_25) 1
Y2(6_26) 1
Y2(6_27) 1
Y2(6_28) 1
Y2(6_29) 1
Y2(6_30) 1
Y2(7_0) 1
Y2(7_1) 1
Y2(7_2) 1
Y2(7_3) 1
Y2(7_4) 1
Y2(7_5) 1
Y2(7_6) 1
Y2(7_7) 1
Y2(7_8) 0
Y2(7_9) 0
Y2(7_10) 0
Y2(7_11) 0
Y2(7_12) 0
Y2(7_13) 0
Y2(7_14) 0
Y2(7_15) 0
Y2(7_16) 0
Y2(7_17) 0
Y2(7_18) 0
Y2(7_19) 0
Y2(7_20) 0
Y2(7_21) 0
Y2(7_22) 0
Y2(7_23) 0
Y2(7_24) 0
Y2(7_25) 0
Y2(7_26) 0
Y2(7_27) 0
Y2(7_28) 0
Y2(7_29) 0
Y2(7_30) 0
Y2(8_0) 1
Y2(8_1) 1
Y2(8_2) 1
Y2(8_3) 1
Y2(8_4) 1
Y2(8_5) 1
Y2(8_6) 1
Y2(8_7) 1
Y2(8_8) 0
Y2(8_9) 0
Y2(8_10) 0
Y2(8_11) 0
Y2(8_12) 0
Y2(8_13) 0
Y2(8_14) 0
Y2(8_15) 0
Y2(8_16) 0
Y2(8_17) 0
Y2(8_18) 0
Y2(8_19) 0
Y2(8_20) 0
Y2(8_21) 0
Y2(8_22) 0
Y2(8_23) 0
Y2(8_24) 1
Y2(8_25) 1
Y2(8_26) 1
Y2(8_27) 1
Y2(8_28) 1
Y2(8_29) 1
Y2(8_30) 1
Y2(9_0) 1
Y2(9_1) 1
Y2(9_2) 1
Y2(9_3) 1
Y2(9_4) 1
Y2(9_5) 1
Y2(9_6) 1
Y2(9_7) 1
Y2(9_8) 0
Y2(9_9) 0
Y2(9_10) 0
Y2(9_11) 0
Y2(9_12) 0
Y2(9_13) 0
Y2(9_14) 0
Y2(9_15) 0
Y2(9_16) 0
Y2(9_17) 0
Y2(9_18) 0
Y2(9_19) 0
Y2(9_20) 0
Y2(9_21) 0
Y2(9_22) 0
Y2(9_23) 0
Y2(9_24) 1
Y2(9_25) 1
Y2(9_26) 1
Y2(9_27) 1
Y2(9_28) 1
Y2(9_29) 1
Y2(9_30) 1
Y2(10_0) 1
Y2(10_1) 1
Y2(10_2) 1
Y2(10_3) 1
Y2(10_4) 1
Y2(10_5) 1
Y2(10_6) 1
Y2(10_7) 1
Y2(10_8) 0
Y2(10_9) 0
Y2(10_10) 0
Y2(10_11) 0
Y2(10_12) 0
Y2(10_13) 0
Y2(10_14) 0
Y2(10_15) 0
Y2(10_16) 0
Y2(10_17) 0
Y2(10_18) 0
Y2(10_19) 0
Y2(10_20) 0
Y2(10_21) 0
Y2(10_22) 0
Y2(10_23) 0
Y2(10_24) 1
Y2(10_25) 1
Y2(10_26) 1
Y2(10_27) 1
Y2(10_28) 1
Y2(10_29) 1
Y2(10_30) 1
Y2(11_0) 1
Y2(11_1) 1
Y2(11_2) 1
Y2(11_3) 1
Y2(11_4) 1
Y2(11_5) 1
Y2(11_6) 1
Y2(11_7) 1
Y2(11_8) 0
Y2(11_9) 0
Y2(11_10) 0
Y2(11_11) 0
Y2(11_12) 0
Y2(11_13) 0
Y2(11_14) 0
Y2(11_15) 0
Y2(11_16) 0
Y2(11_17) 0
Y2(11_18) 0
Y2(11_19) 0
Y2(11_20) 0
Y2(11_21) 0
Y2(11_22) 0
Y2(11_23) 0
Y2(11_24) 1
Y2(11_25) 1
Y2(11_26) 1
Y2(11_27) 1
Y2(11_28) 1
Y2(11_29) 1
Y2(11_30) 1
Y2(12_0) 1
Y2(12_1) 1
Y2(12_2) 1
Y2(12_3) 1
Y2(12_4) 1
Y2(12_5) 1
Y2(12_6) 1
Y2(12_7) 1
Y2(12_8) 0
Y2(12_9) 0
Y2(12_10) 0
Y2(12_11) 0
Y2(12_12) 0
Y2(12_13) 0
Y2(12_14) 0
Y2(12_15) 0
Y2(12_16) 0
Y2(12_17) 0
Y2(12_18) 0
Y2(12_19) 0
Y2(12_20) 0
Y2(12_21) 0
Y2(12_22) 0
Y2(12_23) 0
Y2(12_24) 1
Y2(12_25) 1
Y2(12_26) 1
Y2(12_27) 1
Y2(12_28) 1
Y2(12_29) 1
Y2(12_30) 1
Y2(13_0) 1
Y2(13_1) 1
Y2(13_2) 1
Y2(13_3) 1
Y2(13_4) 1
Y2(13_5) 1
Y2(13_6) 1
Y2(13_7) 1
Y2(13_8) 0
Y2(13_9) 0
Y2(13_10) 0
Y2(13_11) 0
Y2(13_12) 0
Y2(13_13) 0
Y2(13_14) 0
Y2(13_15) 0
Y2(13_16) 0
Y2(13_17) 0
Y2(13_18) 0
Y2(13_19) 0
Y2(13_20) 0
Y2(13_21) 0
Y2(13_22) 0
Y2(13_23) 0
Y2(13_24) 1
Y2(13_25) 1
Y2(13_26) 1
Y2(13_27) 1
Y2(13_28) 1
Y2(13_29) 1
Y2(13_30) 1
Y2(14_0) 1
Y2(14_1) 1
Y2(14_2) 1
Y2(14_3) 1
Y2(14_4) 1
Y2(14_5) 1
Y2(14_6) 1
Y2(14_7) 1
Y2(14_8) 0
Y2(14_9) 0
Y2(14_10) 0
Y2(14_11) 0
Y2(14_12) 0
Y2(14_13) 0
Y2(14_14) 0
Y2(14_15) 0
Y2(14_16) 0
Y2(14_17) 0
Y2(14_18) 0
Y2(14_19) 0
Y2(14_20) 0
Y2(14_21) 0
Y2(14_22) 0
Y2(14_23) 0
Y2(14_24) 0
Y2(14_25) 0
Y2(14_26) 0
Y2(14_27) 0
Y2(14_28) 0
Y2(14_29) 0
Y2(14_30) 0
Y2(15_0) 1
Y2(15_1) 1
Y2(15_2) 1
Y2(15_3) 1
Y2(15_4) 1
Y2(15_5) 1
Y2(15_6) 1
Y2(15_7) 1
Y2(15_8) 0
Y2(15_9) 0
Y2(15_10) 0
Y2(15_11) 0
Y2(15_12) 0
Y2(15_13) 0
Y2(15_14) 0
Y2(15_15) 0
Y2(15_16) 0
Y2(15_17) 0
Y2(15_18) 0
Y2(15_19) 0
Y2(15_20) 0
Y2(15_21) 0
Y2(15_22) 0
Y2(15_23) 0
Y2(15_24) 1
Y2(15_25) 1
Y2(15_26) 1
Y2(15_27) 1
Y2(15_28) 1
Y2(15_29) 1
Y2(15_30) 1
Y2(16_0) 0
Y2(16_1) 0
Y2(16_2) 0
Y2(16_3) 0
Y2(16_4) 0
Y2(16_5) 0
Y2(16_6) 0
Y2(16_7) 0
Y2(16_8) 0
Y2(16_9) 0
Y2(16_10) 0
Y2(16_11) 0
Y2(16_12) 0
Y2(16_13) 0
Y2(16_14) 0
Y2(16_15) 0
Y2(16_16) 0
Y2(16_17) 0
Y2(16_18) 0
Y2(16_19) 0
Y2(16_20) 0
Y2(16_21) 0
Y2(16_22) 0
Y2(16_23) 0
Y2(16_24) 0
Y2(16_25) 0
Y2(16_26) 0
Y2(16_27) 0
Y2(16_28) 0
Y2(16_29) 0
Y2(16_30) 0
Y2(17_0) 1
Y2(17_1) 1
Y2(17_2) 1
Y2(17_3) 1
Y2(17_4) 1
Y2(17_5) 1
Y2(17_6) 1
Y2(17_7) 1
Y2(17_8) 0
Y2(17_9) 0
Y2(17_10) 0
Y2(17_11) 0
Y2(17_12) 0
Y2(17_13) 0
Y2(17_14) 0
Y2(17_15) 0
Y2(17_16) 0
Y2(17_17) 0
Y2(17_18) 0
Y2(17_19) 0
Y2(17_20) 0
Y2(17_21) 0
Y2(17_22) 0
Y2(17_23) 0
Y2(17_24) 1
Y2(17_25) 1
Y2(17_26) 1
Y2(17_27) 1
Y2(17_28) 1
Y2(17_29) 1
Y2(17_30) 1
Y2(18_0) 1
Y2(18_1) 1
Y2(18_2) 1
Y2(18_3) 1
Y2(18_4) 1
Y2(18_5) 1
Y2(18_6) 1
Y2(18_7) 1
Y2(18_8) 0
Y2(18_9) 0
Y2(18_10) 0
Y2(18_11) 0
Y2(18_12) 0
Y2(18_13) 0
Y2(18_14) 0
Y2(18_15) 0
Y2(18_16) 0
Y2(18_17) 0
Y2(18_18) 0
Y2(18_19) 0
Y2(18_20) 0
Y2(18_21) 0
Y2(18_22) 0
Y2(18_23) 0
Y2(18_24) 1
Y2(18_25) 1
Y2(18_26) 1
Y2(18_27) 1
Y2(18_28) 1
Y2(18_29) 1
Y2(18_30) 1
